% --- Grafo Generato Automaticamente ---
% Parametri: 50 nodi, 5 colori
% Statistiche: 87 archi, grado medio 3.48, densità 0.071

% Nodi del grafo
node(1..50).

% Archi del grafo (87 archi)
edge(1,3).
edge(1,4).
edge(1,5).
edge(2,4).
edge(2,5).
edge(2,6).
edge(2,7).
edge(3,4).
edge(3,5).
edge(3,6).
edge(4,5).
edge(4,6).
edge(4,7).
edge(4,31).
edge(5,7).
edge(5,8).
edge(5,22).
edge(8,10).
edge(8,11).
edge(8,13).
edge(8,14).
edge(9,10).
edge(9,28).
edge(10,11).
edge(10,13).
edge(10,14).
edge(12,13).
edge(12,40).
edge(13,14).
edge(13,50).
edge(15,16).
edge(15,17).
edge(15,18).
edge(15,19).
edge(15,20).
edge(16,17).
edge(16,19).
edge(16,20).
edge(17,18).
edge(17,19).
edge(19,20).
edge(21,23).
edge(21,24).
edge(22,23).
edge(23,24).
edge(23,25).
edge(23,26).
edge(24,25).
edge(24,26).
edge(27,29).
edge(27,31).
edge(28,29).
edge(28,30).
edge(28,31).
edge(28,32).
edge(29,30).
edge(29,31).
edge(30,31).
edge(30,32).
edge(32,33).
edge(33,34).
edge(33,35).
edge(33,36).
edge(33,37).
edge(34,36).
edge(34,37).
edge(34,38).
edge(35,37).
edge(36,38).
edge(37,42).
edge(39,41).
edge(39,42).
edge(39,44).
edge(40,41).
edge(40,42).
edge(41,42).
edge(41,43).
edge(41,44).
edge(43,44).
edge(45,48).
edge(45,50).
edge(46,48).
edge(46,49).
edge(46,50).
edge(47,48).
edge(48,50).
edge(49,50).
